p cnf 336 1958
1 2 3 4 0
-1 97 0
-2 97 0
-1 -2 98 0
-3 99 0
-4 99 0
-3 -4 100 0
-97 101 0
-99 101 0
-97 -99 102 0
-98 103 0
-100 103 0
-98 -100 104 0
-102 105 0
-103 105 0
-102 -103 106 0
-105 0
25 26 27 28 0
-25 107 0
-26 107 0
-25 -26 108 0
-27 109 0
-28 109 0
-27 -28 110 0
-107 111 0
-109 111 0
-107 -109 112 0
-108 113 0
-110 113 0
-108 -110 114 0
-112 115 0
-113 115 0
-112 -113 116 0
-115 0
49 50 51 52 0
-49 117 0
-50 117 0
-49 -50 118 0
-51 119 0
-52 119 0
-51 -52 120 0
-117 121 0
-119 121 0
-117 -119 122 0
-118 123 0
-120 123 0
-118 -120 124 0
-122 125 0
-123 125 0
-122 -123 126 0
-125 0
73 74 75 76 0
-73 127 0
-74 127 0
-73 -74 128 0
-75 129 0
-76 129 0
-75 -76 130 0
-127 131 0
-129 131 0
-127 -129 132 0
-128 133 0
-130 133 0
-128 -130 134 0
-132 135 0
-133 135 0
-132 -133 136 0
-135 0
5 6 7 8 0
-5 137 0
-6 137 0
-5 -6 138 0
-7 139 0
-8 139 0
-7 -8 140 0
-137 141 0
-139 141 0
-137 -139 142 0
-138 143 0
-140 143 0
-138 -140 144 0
-142 145 0
-143 145 0
-142 -143 146 0
-145 0
29 30 31 32 0
-29 147 0
-30 147 0
-29 -30 148 0
-31 149 0
-32 149 0
-31 -32 150 0
-147 151 0
-149 151 0
-147 -149 152 0
-148 153 0
-150 153 0
-148 -150 154 0
-152 155 0
-153 155 0
-152 -153 156 0
-155 0
53 54 55 56 0
-53 157 0
-54 157 0
-53 -54 158 0
-55 159 0
-56 159 0
-55 -56 160 0
-157 161 0
-159 161 0
-157 -159 162 0
-158 163 0
-160 163 0
-158 -160 164 0
-162 165 0
-163 165 0
-162 -163 166 0
-165 0
77 78 79 80 0
-77 167 0
-78 167 0
-77 -78 168 0
-79 169 0
-80 169 0
-79 -80 170 0
-167 171 0
-169 171 0
-167 -169 172 0
-168 173 0
-170 173 0
-168 -170 174 0
-172 175 0
-173 175 0
-172 -173 176 0
-175 0
9 10 11 12 0
-9 177 0
-10 177 0
-9 -10 178 0
-11 179 0
-12 179 0
-11 -12 180 0
-177 181 0
-179 181 0
-177 -179 182 0
-178 183 0
-180 183 0
-178 -180 184 0
-182 185 0
-183 185 0
-182 -183 186 0
-185 0
33 34 35 36 0
-33 187 0
-34 187 0
-33 -34 188 0
-35 189 0
-36 189 0
-35 -36 190 0
-187 191 0
-189 191 0
-187 -189 192 0
-188 193 0
-190 193 0
-188 -190 194 0
-192 195 0
-193 195 0
-192 -193 196 0
-195 0
57 58 59 60 0
-57 197 0
-58 197 0
-57 -58 198 0
-59 199 0
-60 199 0
-59 -60 200 0
-197 201 0
-199 201 0
-197 -199 202 0
-198 203 0
-200 203 0
-198 -200 204 0
-202 205 0
-203 205 0
-202 -203 206 0
-205 0
81 82 83 84 0
-81 207 0
-82 207 0
-81 -82 208 0
-83 209 0
-84 209 0
-83 -84 210 0
-207 211 0
-209 211 0
-207 -209 212 0
-208 213 0
-210 213 0
-208 -210 214 0
-212 215 0
-213 215 0
-212 -213 216 0
-215 0
13 14 15 16 0
-13 217 0
-14 217 0
-13 -14 218 0
-15 219 0
-16 219 0
-15 -16 220 0
-217 221 0
-219 221 0
-217 -219 222 0
-218 223 0
-220 223 0
-218 -220 224 0
-222 225 0
-223 225 0
-222 -223 226 0
-225 0
37 38 39 40 0
-37 227 0
-38 227 0
-37 -38 228 0
-39 229 0
-40 229 0
-39 -40 230 0
-227 231 0
-229 231 0
-227 -229 232 0
-228 233 0
-230 233 0
-228 -230 234 0
-232 235 0
-233 235 0
-232 -233 236 0
-235 0
61 62 63 64 0
-61 237 0
-62 237 0
-61 -62 238 0
-63 239 0
-64 239 0
-63 -64 240 0
-237 241 0
-239 241 0
-237 -239 242 0
-238 243 0
-240 243 0
-238 -240 244 0
-242 245 0
-243 245 0
-242 -243 246 0
-245 0
85 86 87 88 0
-85 247 0
-86 247 0
-85 -86 248 0
-87 249 0
-88 249 0
-87 -88 250 0
-247 251 0
-249 251 0
-247 -249 252 0
-248 253 0
-250 253 0
-248 -250 254 0
-252 255 0
-253 255 0
-252 -253 256 0
-255 0
17 18 19 20 0
-17 257 0
-18 257 0
-17 -18 258 0
-19 259 0
-20 259 0
-19 -20 260 0
-257 261 0
-259 261 0
-257 -259 262 0
-258 263 0
-260 263 0
-258 -260 264 0
-262 265 0
-263 265 0
-262 -263 266 0
-265 0
41 42 43 44 0
-41 267 0
-42 267 0
-41 -42 268 0
-43 269 0
-44 269 0
-43 -44 270 0
-267 271 0
-269 271 0
-267 -269 272 0
-268 273 0
-270 273 0
-268 -270 274 0
-272 275 0
-273 275 0
-272 -273 276 0
-275 0
65 66 67 68 0
-65 277 0
-66 277 0
-65 -66 278 0
-67 279 0
-68 279 0
-67 -68 280 0
-277 281 0
-279 281 0
-277 -279 282 0
-278 283 0
-280 283 0
-278 -280 284 0
-282 285 0
-283 285 0
-282 -283 286 0
-285 0
89 90 91 92 0
-89 287 0
-90 287 0
-89 -90 288 0
-91 289 0
-92 289 0
-91 -92 290 0
-287 291 0
-289 291 0
-287 -289 292 0
-288 293 0
-290 293 0
-288 -290 294 0
-292 295 0
-293 295 0
-292 -293 296 0
-295 0
21 22 23 24 0
-21 297 0
-22 297 0
-21 -22 298 0
-23 299 0
-24 299 0
-23 -24 300 0
-297 301 0
-299 301 0
-297 -299 302 0
-298 303 0
-300 303 0
-298 -300 304 0
-302 305 0
-303 305 0
-302 -303 306 0
-305 0
45 46 47 48 0
-45 307 0
-46 307 0
-45 -46 308 0
-47 309 0
-48 309 0
-47 -48 310 0
-307 311 0
-309 311 0
-307 -309 312 0
-308 313 0
-310 313 0
-308 -310 314 0
-312 315 0
-313 315 0
-312 -313 316 0
-315 0
69 70 71 72 0
-69 317 0
-70 317 0
-69 -70 318 0
-71 319 0
-72 319 0
-71 -72 320 0
-317 321 0
-319 321 0
-317 -319 322 0
-318 323 0
-320 323 0
-318 -320 324 0
-322 325 0
-323 325 0
-322 -323 326 0
-325 0
93 94 95 96 0
-93 327 0
-94 327 0
-93 -94 328 0
-95 329 0
-96 329 0
-95 -96 330 0
-327 331 0
-329 331 0
-327 -329 332 0
-328 333 0
-330 333 0
-328 -330 334 0
-332 335 0
-333 335 0
-332 -333 336 0
-335 0
-1 -25 -49 -73 6 0
-1 -26 -49 -73 6 0
-1 -27 -49 -73 6 0
-1 -28 -49 -73 6 0
-1 -25 -50 -73 6 0
-1 -26 -50 -73 6 0
-1 -27 -50 -73 6 0
-1 -28 -50 -73 6 0
-1 -25 -51 -73 6 0
-1 -26 -51 -73 6 0
-1 -27 -51 -73 6 0
-1 -28 -51 -73 6 0
-1 -25 -52 -73 6 0
-1 -26 -52 -73 6 0
-1 -27 -52 -73 6 0
-1 -28 -52 -73 6 0
-1 -25 -49 -74 6 0
-1 -26 -49 -74 6 0
-1 -27 -49 -74 6 0
-1 -28 -49 -74 6 0
-1 -25 -50 -74 6 0
-1 -26 -50 -74 6 0
-1 -27 -50 -74 6 0
-1 -28 -50 -74 6 0
-1 -25 -51 -74 6 0
-1 -26 -51 -74 6 0
-1 -27 -51 -74 6 0
-1 -28 -51 -74 6 0
-1 -25 -52 -74 6 0
-1 -26 -52 -74 6 0
-1 -27 -52 -74 6 0
-1 -28 -52 -74 6 0
-1 -25 -49 -75 6 0
-1 -26 -49 -75 6 0
-1 -27 -49 -75 6 0
-1 -28 -49 -75 6 0
-1 -25 -50 -75 6 0
-1 -26 -50 -75 6 0
-1 -27 -50 -75 6 0
-1 -28 -50 -75 6 0
-1 -25 -51 -75 6 0
-1 -26 -51 -75 6 0
-1 -27 -51 -75 6 0
-1 -28 -51 -75 6 0
-1 -25 -52 -75 6 0
-1 -26 -52 -75 6 0
-1 -27 -52 -75 6 0
-1 -28 -52 -75 6 0
-1 -25 -49 -76 6 0
-1 -26 -49 -76 6 0
-1 -27 -49 -76 6 0
-1 -28 -49 -76 6 0
-1 -25 -50 -76 6 0
-1 -26 -50 -76 6 0
-1 -27 -50 -76 6 0
-1 -28 -50 -76 6 0
-1 -25 -51 -76 6 0
-1 -26 -51 -76 6 0
-1 -27 -51 -76 6 0
-1 -28 -51 -76 6 0
-1 -25 -52 -76 6 0
-1 -26 -52 -76 6 0
-1 -27 -52 -76 6 0
-1 -28 -52 -76 6 0
-2 -25 -49 -73 6 0
-2 -26 -49 -73 6 0
-2 -27 -49 -73 6 0
-2 -28 -49 -73 6 0
-2 -25 -50 -73 6 0
-2 -26 -50 -73 6 0
-2 -27 -50 -73 6 0
-2 -28 -50 -73 6 0
-2 -25 -51 -73 6 0
-2 -26 -51 -73 6 0
-2 -27 -51 -73 6 0
-2 -28 -51 -73 6 0
-2 -25 -52 -73 6 0
-2 -26 -52 -73 6 0
-2 -27 -52 -73 6 0
-2 -28 -52 -73 6 0
-2 -25 -49 -74 6 0
-2 -26 -49 -74 6 0
-2 -27 -49 -74 6 0
-2 -28 -49 -74 6 0
-2 -25 -50 -74 6 0
-2 -26 -50 -74 7 0
-2 -27 -50 -74 7 0
-2 -28 -50 -74 7 0
-2 -25 -51 -74 6 0
-2 -26 -51 -74 7 0
-2 -27 -51 -74 7 0
-2 -28 -51 -74 7 0
-2 -25 -52 -74 6 0
-2 -26 -52 -74 7 0
-2 -27 -52 -74 7 0
-2 -28 -52 -74 7 0
-2 -25 -49 -75 6 0
-2 -26 -49 -75 6 0
-2 -27 -49 -75 6 0
-2 -28 -49 -75 6 0
-2 -25 -50 -75 6 0
-2 -26 -50 -75 7 0
-2 -27 -50 -75 7 0
-2 -28 -50 -75 7 0
-2 -25 -51 -75 6 0
-2 -26 -51 -75 7 0
-2 -27 -51 -75 7 0
-2 -28 -51 -75 7 0
-2 -25 -52 -75 6 0
-2 -26 -52 -75 7 0
-2 -27 -52 -75 7 0
-2 -28 -52 -75 7 0
-2 -25 -49 -76 6 0
-2 -26 -49 -76 6 0
-2 -27 -49 -76 6 0
-2 -28 -49 -76 6 0
-2 -25 -50 -76 6 0
-2 -26 -50 -76 7 0
-2 -27 -50 -76 7 0
-2 -28 -50 -76 7 0
-2 -25 -51 -76 6 0
-2 -26 -51 -76 7 0
-2 -27 -51 -76 7 0
-2 -28 -51 -76 7 0
-2 -25 -52 -76 6 0
-2 -26 -52 -76 7 0
-2 -27 -52 -76 7 0
-2 -28 -52 -76 7 0
-3 -25 -49 -73 6 0
-3 -26 -49 -73 6 0
-3 -27 -49 -73 6 0
-3 -28 -49 -73 6 0
-3 -25 -50 -73 6 0
-3 -26 -50 -73 6 0
-3 -27 -50 -73 6 0
-3 -28 -50 -73 6 0
-3 -25 -51 -73 6 0
-3 -26 -51 -73 6 0
-3 -27 -51 -73 6 0
-3 -28 -51 -73 6 0
-3 -25 -52 -73 6 0
-3 -26 -52 -73 6 0
-3 -27 -52 -73 6 0
-3 -28 -52 -73 6 0
-3 -25 -49 -74 6 0
-3 -26 -49 -74 6 0
-3 -27 -49 -74 6 0
-3 -28 -49 -74 6 0
-3 -25 -50 -74 6 0
-3 -26 -50 -74 7 0
-3 -27 -50 -74 7 0
-3 -28 -50 -74 7 0
-3 -25 -51 -74 6 0
-3 -26 -51 -74 7 0
-3 -27 -51 -74 7 0
-3 -28 -51 -74 7 0
-3 -25 -52 -74 6 0
-3 -26 -52 -74 7 0
-3 -27 -52 -74 7 0
-3 -28 -52 -74 7 0
-3 -25 -49 -75 6 0
-3 -26 -49 -75 6 0
-3 -27 -49 -75 6 0
-3 -28 -49 -75 6 0
-3 -25 -50 -75 6 0
-3 -26 -50 -75 7 0
-3 -27 -50 -75 7 0
-3 -28 -50 -75 7 0
-3 -25 -51 -75 6 0
-3 -26 -51 -75 7 0
-3 -27 -51 -75 8 0
-3 -28 -51 -75 8 0
-3 -25 -52 -75 6 0
-3 -26 -52 -75 7 0
-3 -27 -52 -75 8 0
-3 -28 -52 -75 8 0
-3 -25 -49 -76 6 0
-3 -26 -49 -76 6 0
-3 -27 -49 -76 6 0
-3 -28 -49 -76 6 0
-3 -25 -50 -76 6 0
-3 -26 -50 -76 7 0
-3 -27 -50 -76 7 0
-3 -28 -50 -76 7 0
-3 -25 -51 -76 6 0
-3 -26 -51 -76 7 0
-3 -27 -51 -76 8 0
-3 -28 -51 -76 8 0
-3 -25 -52 -76 6 0
-3 -26 -52 -76 7 0
-3 -27 -52 -76 8 0
-3 -28 -52 -76 8 0
-4 -25 -49 -73 6 0
-4 -26 -49 -73 6 0
-4 -27 -49 -73 6 0
-4 -28 -49 -73 6 0
-4 -25 -50 -73 6 0
-4 -26 -50 -73 6 0
-4 -27 -50 -73 6 0
-4 -28 -50 -73 6 0
-4 -25 -51 -73 6 0
-4 -26 -51 -73 6 0
-4 -27 -51 -73 6 0
-4 -28 -51 -73 6 0
-4 -25 -52 -73 6 0
-4 -26 -52 -73 6 0
-4 -27 -52 -73 6 0
-4 -28 -52 -73 6 0
-4 -25 -49 -74 6 0
-4 -26 -49 -74 6 0
-4 -27 -49 -74 6 0
-4 -28 -49 -74 6 0
-4 -25 -50 -74 6 0
-4 -26 -50 -74 7 0
-4 -27 -50 -74 7 0
-4 -28 -50 -74 7 0
-4 -25 -51 -74 6 0
-4 -26 -51 -74 7 0
-4 -27 -51 -74 7 0
-4 -28 -51 -74 7 0
-4 -25 -52 -74 6 0
-4 -26 -52 -74 7 0
-4 -27 -52 -74 7 0
-4 -28 -52 -74 7 0
-4 -25 -49 -75 6 0
-4 -26 -49 -75 6 0
-4 -27 -49 -75 6 0
-4 -28 -49 -75 6 0
-4 -25 -50 -75 6 0
-4 -26 -50 -75 7 0
-4 -27 -50 -75 7 0
-4 -28 -50 -75 7 0
-4 -25 -51 -75 6 0
-4 -26 -51 -75 7 0
-4 -27 -51 -75 8 0
-4 -28 -51 -75 8 0
-4 -25 -52 -75 6 0
-4 -26 -52 -75 7 0
-4 -27 -52 -75 8 0
-4 -28 -52 -75 8 0
-4 -25 -49 -76 6 0
-4 -26 -49 -76 6 0
-4 -27 -49 -76 6 0
-4 -28 -49 -76 6 0
-4 -25 -50 -76 6 0
-4 -26 -50 -76 7 0
-4 -27 -50 -76 7 0
-4 -28 -50 -76 7 0
-4 -25 -51 -76 6 0
-4 -26 -51 -76 7 0
-4 -27 -51 -76 8 0
-4 -28 -51 -76 8 0
-4 -25 -52 -76 6 0
-4 -26 -52 -76 7 0
-4 -27 -52 -76 8 0
-4 -28 -52 -76 5 0
-25 -1 30 0
-25 -2 30 0
-25 -3 30 0
-25 -4 30 0
-26 -1 30 0
-26 -2 31 0
-26 -3 31 0
-26 -4 31 0
-27 -1 30 0
-27 -2 31 0
-27 -3 32 0
-27 -4 32 0
-28 -1 30 0
-28 -2 31 0
-28 -3 32 0
-28 -4 29 0
-49 -1 54 0
-49 -2 54 0
-49 -3 54 0
-49 -4 54 0
-50 -1 54 0
-50 -2 55 0
-50 -3 55 0
-50 -4 55 0
-51 -1 54 0
-51 -2 55 0
-51 -3 56 0
-51 -4 56 0
-52 -1 54 0
-52 -2 55 0
-52 -3 56 0
-52 -4 53 0
-73 -1 78 0
-73 -2 78 0
-73 -3 78 0
-73 -4 78 0
-74 -1 78 0
-74 -2 79 0
-74 -3 79 0
-74 -4 79 0
-75 -1 78 0
-75 -2 79 0
-75 -3 80 0
-75 -4 80 0
-76 -1 78 0
-76 -2 79 0
-76 -3 80 0
-76 -4 77 0
-5 -29 -53 -77 10 0
-5 -30 -53 -77 10 0
-5 -31 -53 -77 10 0
-5 -32 -53 -77 10 0
-5 -29 -54 -77 10 0
-5 -30 -54 -77 10 0
-5 -31 -54 -77 10 0
-5 -32 -54 -77 10 0
-5 -29 -55 -77 10 0
-5 -30 -55 -77 10 0
-5 -31 -55 -77 10 0
-5 -32 -55 -77 10 0
-5 -29 -56 -77 10 0
-5 -30 -56 -77 10 0
-5 -31 -56 -77 10 0
-5 -32 -56 -77 10 0
-5 -29 -53 -78 10 0
-5 -30 -53 -78 10 0
-5 -31 -53 -78 10 0
-5 -32 -53 -78 10 0
-5 -29 -54 -78 10 0
-5 -30 -54 -78 10 0
-5 -31 -54 -78 10 0
-5 -32 -54 -78 10 0
-5 -29 -55 -78 10 0
-5 -30 -55 -78 10 0
-5 -31 -55 -78 10 0
-5 -32 -55 -78 10 0
-5 -29 -56 -78 10 0
-5 -30 -56 -78 10 0
-5 -31 -56 -78 10 0
-5 -32 -56 -78 10 0
-5 -29 -53 -79 10 0
-5 -30 -53 -79 10 0
-5 -31 -53 -79 10 0
-5 -32 -53 -79 10 0
-5 -29 -54 -79 10 0
-5 -30 -54 -79 10 0
-5 -31 -54 -79 10 0
-5 -32 -54 -79 10 0
-5 -29 -55 -79 10 0
-5 -30 -55 -79 10 0
-5 -31 -55 -79 10 0
-5 -32 -55 -79 10 0
-5 -29 -56 -79 10 0
-5 -30 -56 -79 10 0
-5 -31 -56 -79 10 0
-5 -32 -56 -79 10 0
-5 -29 -53 -80 10 0
-5 -30 -53 -80 10 0
-5 -31 -53 -80 10 0
-5 -32 -53 -80 10 0
-5 -29 -54 -80 10 0
-5 -30 -54 -80 10 0
-5 -31 -54 -80 10 0
-5 -32 -54 -80 10 0
-5 -29 -55 -80 10 0
-5 -30 -55 -80 10 0
-5 -31 -55 -80 10 0
-5 -32 -55 -80 10 0
-5 -29 -56 -80 10 0
-5 -30 -56 -80 10 0
-5 -31 -56 -80 10 0
-5 -32 -56 -80 10 0
-6 -29 -53 -77 10 0
-6 -30 -53 -77 10 0
-6 -31 -53 -77 10 0
-6 -32 -53 -77 10 0
-6 -29 -54 -77 10 0
-6 -30 -54 -77 10 0
-6 -31 -54 -77 10 0
-6 -32 -54 -77 10 0
-6 -29 -55 -77 10 0
-6 -30 -55 -77 10 0
-6 -31 -55 -77 10 0
-6 -32 -55 -77 10 0
-6 -29 -56 -77 10 0
-6 -30 -56 -77 10 0
-6 -31 -56 -77 10 0
-6 -32 -56 -77 10 0
-6 -29 -53 -78 10 0
-6 -30 -53 -78 10 0
-6 -31 -53 -78 10 0
-6 -32 -53 -78 10 0
-6 -29 -54 -78 10 0
-6 -30 -54 -78 11 0
-6 -31 -54 -78 11 0
-6 -32 -54 -78 11 0
-6 -29 -55 -78 10 0
-6 -30 -55 -78 11 0
-6 -31 -55 -78 11 0
-6 -32 -55 -78 11 0
-6 -29 -56 -78 10 0
-6 -30 -56 -78 11 0
-6 -31 -56 -78 11 0
-6 -32 -56 -78 11 0
-6 -29 -53 -79 10 0
-6 -30 -53 -79 10 0
-6 -31 -53 -79 10 0
-6 -32 -53 -79 10 0
-6 -29 -54 -79 10 0
-6 -30 -54 -79 11 0
-6 -31 -54 -79 11 0
-6 -32 -54 -79 11 0
-6 -29 -55 -79 10 0
-6 -30 -55 -79 11 0
-6 -31 -55 -79 11 0
-6 -32 -55 -79 11 0
-6 -29 -56 -79 10 0
-6 -30 -56 -79 11 0
-6 -31 -56 -79 11 0
-6 -32 -56 -79 11 0
-6 -29 -53 -80 10 0
-6 -30 -53 -80 10 0
-6 -31 -53 -80 10 0
-6 -32 -53 -80 10 0
-6 -29 -54 -80 10 0
-6 -30 -54 -80 11 0
-6 -31 -54 -80 11 0
-6 -32 -54 -80 11 0
-6 -29 -55 -80 10 0
-6 -30 -55 -80 11 0
-6 -31 -55 -80 11 0
-6 -32 -55 -80 11 0
-6 -29 -56 -80 10 0
-6 -30 -56 -80 11 0
-6 -31 -56 -80 11 0
-6 -32 -56 -80 11 0
-7 -29 -53 -77 10 0
-7 -30 -53 -77 10 0
-7 -31 -53 -77 10 0
-7 -32 -53 -77 10 0
-7 -29 -54 -77 10 0
-7 -30 -54 -77 10 0
-7 -31 -54 -77 10 0
-7 -32 -54 -77 10 0
-7 -29 -55 -77 10 0
-7 -30 -55 -77 10 0
-7 -31 -55 -77 10 0
-7 -32 -55 -77 10 0
-7 -29 -56 -77 10 0
-7 -30 -56 -77 10 0
-7 -31 -56 -77 10 0
-7 -32 -56 -77 10 0
-7 -29 -53 -78 10 0
-7 -30 -53 -78 10 0
-7 -31 -53 -78 10 0
-7 -32 -53 -78 10 0
-7 -29 -54 -78 10 0
-7 -30 -54 -78 11 0
-7 -31 -54 -78 11 0
-7 -32 -54 -78 11 0
-7 -29 -55 -78 10 0
-7 -30 -55 -78 11 0
-7 -31 -55 -78 11 0
-7 -32 -55 -78 11 0
-7 -29 -56 -78 10 0
-7 -30 -56 -78 11 0
-7 -31 -56 -78 11 0
-7 -32 -56 -78 11 0
-7 -29 -53 -79 10 0
-7 -30 -53 -79 10 0
-7 -31 -53 -79 10 0
-7 -32 -53 -79 10 0
-7 -29 -54 -79 10 0
-7 -30 -54 -79 11 0
-7 -31 -54 -79 11 0
-7 -32 -54 -79 11 0
-7 -29 -55 -79 10 0
-7 -30 -55 -79 11 0
-7 -31 -55 -79 12 0
-7 -32 -55 -79 12 0
-7 -29 -56 -79 10 0
-7 -30 -56 -79 11 0
-7 -31 -56 -79 12 0
-7 -32 -56 -79 12 0
-7 -29 -53 -80 10 0
-7 -30 -53 -80 10 0
-7 -31 -53 -80 10 0
-7 -32 -53 -80 10 0
-7 -29 -54 -80 10 0
-7 -30 -54 -80 11 0
-7 -31 -54 -80 11 0
-7 -32 -54 -80 11 0
-7 -29 -55 -80 10 0
-7 -30 -55 -80 11 0
-7 -31 -55 -80 12 0
-7 -32 -55 -80 12 0
-7 -29 -56 -80 10 0
-7 -30 -56 -80 11 0
-7 -31 -56 -80 12 0
-7 -32 -56 -80 12 0
-8 -29 -53 -77 10 0
-8 -30 -53 -77 10 0
-8 -31 -53 -77 10 0
-8 -32 -53 -77 10 0
-8 -29 -54 -77 10 0
-8 -30 -54 -77 10 0
-8 -31 -54 -77 10 0
-8 -32 -54 -77 10 0
-8 -29 -55 -77 10 0
-8 -30 -55 -77 10 0
-8 -31 -55 -77 10 0
-8 -32 -55 -77 10 0
-8 -29 -56 -77 10 0
-8 -30 -56 -77 10 0
-8 -31 -56 -77 10 0
-8 -32 -56 -77 10 0
-8 -29 -53 -78 10 0
-8 -30 -53 -78 10 0
-8 -31 -53 -78 10 0
-8 -32 -53 -78 10 0
-8 -29 -54 -78 10 0
-8 -30 -54 -78 11 0
-8 -31 -54 -78 11 0
-8 -32 -54 -78 11 0
-8 -29 -55 -78 10 0
-8 -30 -55 -78 11 0
-8 -31 -55 -78 11 0
-8 -32 -55 -78 11 0
-8 -29 -56 -78 10 0
-8 -30 -56 -78 11 0
-8 -31 -56 -78 11 0
-8 -32 -56 -78 11 0
-8 -29 -53 -79 10 0
-8 -30 -53 -79 10 0
-8 -31 -53 -79 10 0
-8 -32 -53 -79 10 0
-8 -29 -54 -79 10 0
-8 -30 -54 -79 11 0
-8 -31 -54 -79 11 0
-8 -32 -54 -79 11 0
-8 -29 -55 -79 10 0
-8 -30 -55 -79 11 0
-8 -31 -55 -79 12 0
-8 -32 -55 -79 12 0
-8 -29 -56 -79 10 0
-8 -30 -56 -79 11 0
-8 -31 -56 -79 12 0
-8 -32 -56 -79 12 0
-8 -29 -53 -80 10 0
-8 -30 -53 -80 10 0
-8 -31 -53 -80 10 0
-8 -32 -53 -80 10 0
-8 -29 -54 -80 10 0
-8 -30 -54 -80 11 0
-8 -31 -54 -80 11 0
-8 -32 -54 -80 11 0
-8 -29 -55 -80 10 0
-8 -30 -55 -80 11 0
-8 -31 -55 -80 12 0
-8 -32 -55 -80 12 0
-8 -29 -56 -80 10 0
-8 -30 -56 -80 11 0
-8 -31 -56 -80 12 0
-8 -32 -56 -80 9 0
-29 -5 34 0
-29 -6 34 0
-29 -7 34 0
-29 -8 34 0
-30 -5 34 0
-30 -6 35 0
-30 -7 35 0
-30 -8 35 0
-31 -5 34 0
-31 -6 35 0
-31 -7 36 0
-31 -8 36 0
-32 -5 34 0
-32 -6 35 0
-32 -7 36 0
-32 -8 33 0
-53 -5 58 0
-53 -6 58 0
-53 -7 58 0
-53 -8 58 0
-54 -5 58 0
-54 -6 59 0
-54 -7 59 0
-54 -8 59 0
-55 -5 58 0
-55 -6 59 0
-55 -7 60 0
-55 -8 60 0
-56 -5 58 0
-56 -6 59 0
-56 -7 60 0
-56 -8 57 0
-77 -5 82 0
-77 -6 82 0
-77 -7 82 0
-77 -8 82 0
-78 -5 82 0
-78 -6 83 0
-78 -7 83 0
-78 -8 83 0
-79 -5 82 0
-79 -6 83 0
-79 -7 84 0
-79 -8 84 0
-80 -5 82 0
-80 -6 83 0
-80 -7 84 0
-80 -8 81 0
-9 -33 -57 -81 14 0
-9 -34 -57 -81 14 0
-9 -35 -57 -81 14 0
-9 -36 -57 -81 14 0
-9 -33 -58 -81 14 0
-9 -34 -58 -81 14 0
-9 -35 -58 -81 14 0
-9 -36 -58 -81 14 0
-9 -33 -59 -81 14 0
-9 -34 -59 -81 14 0
-9 -35 -59 -81 14 0
-9 -36 -59 -81 14 0
-9 -33 -60 -81 14 0
-9 -34 -60 -81 14 0
-9 -35 -60 -81 14 0
-9 -36 -60 -81 14 0
-9 -33 -57 -82 14 0
-9 -34 -57 -82 14 0
-9 -35 -57 -82 14 0
-9 -36 -57 -82 14 0
-9 -33 -58 -82 14 0
-9 -34 -58 -82 14 0
-9 -35 -58 -82 14 0
-9 -36 -58 -82 14 0
-9 -33 -59 -82 14 0
-9 -34 -59 -82 14 0
-9 -35 -59 -82 14 0
-9 -36 -59 -82 14 0
-9 -33 -60 -82 14 0
-9 -34 -60 -82 14 0
-9 -35 -60 -82 14 0
-9 -36 -60 -82 14 0
-9 -33 -57 -83 14 0
-9 -34 -57 -83 14 0
-9 -35 -57 -83 14 0
-9 -36 -57 -83 14 0
-9 -33 -58 -83 14 0
-9 -34 -58 -83 14 0
-9 -35 -58 -83 14 0
-9 -36 -58 -83 14 0
-9 -33 -59 -83 14 0
-9 -34 -59 -83 14 0
-9 -35 -59 -83 14 0
-9 -36 -59 -83 14 0
-9 -33 -60 -83 14 0
-9 -34 -60 -83 14 0
-9 -35 -60 -83 14 0
-9 -36 -60 -83 14 0
-9 -33 -57 -84 14 0
-9 -34 -57 -84 14 0
-9 -35 -57 -84 14 0
-9 -36 -57 -84 14 0
-9 -33 -58 -84 14 0
-9 -34 -58 -84 14 0
-9 -35 -58 -84 14 0
-9 -36 -58 -84 14 0
-9 -33 -59 -84 14 0
-9 -34 -59 -84 14 0
-9 -35 -59 -84 14 0
-9 -36 -59 -84 14 0
-9 -33 -60 -84 14 0
-9 -34 -60 -84 14 0
-9 -35 -60 -84 14 0
-9 -36 -60 -84 14 0
-10 -33 -57 -81 14 0
-10 -34 -57 -81 14 0
-10 -35 -57 -81 14 0
-10 -36 -57 -81 14 0
-10 -33 -58 -81 14 0
-10 -34 -58 -81 14 0
-10 -35 -58 -81 14 0
-10 -36 -58 -81 14 0
-10 -33 -59 -81 14 0
-10 -34 -59 -81 14 0
-10 -35 -59 -81 14 0
-10 -36 -59 -81 14 0
-10 -33 -60 -81 14 0
-10 -34 -60 -81 14 0
-10 -35 -60 -81 14 0
-10 -36 -60 -81 14 0
-10 -33 -57 -82 14 0
-10 -34 -57 -82 14 0
-10 -35 -57 -82 14 0
-10 -36 -57 -82 14 0
-10 -33 -58 -82 14 0
-10 -34 -58 -82 15 0
-10 -35 -58 -82 15 0
-10 -36 -58 -82 15 0
-10 -33 -59 -82 14 0
-10 -34 -59 -82 15 0
-10 -35 -59 -82 15 0
-10 -36 -59 -82 15 0
-10 -33 -60 -82 14 0
-10 -34 -60 -82 15 0
-10 -35 -60 -82 15 0
-10 -36 -60 -82 15 0
-10 -33 -57 -83 14 0
-10 -34 -57 -83 14 0
-10 -35 -57 -83 14 0
-10 -36 -57 -83 14 0
-10 -33 -58 -83 14 0
-10 -34 -58 -83 15 0
-10 -35 -58 -83 15 0
-10 -36 -58 -83 15 0
-10 -33 -59 -83 14 0
-10 -34 -59 -83 15 0
-10 -35 -59 -83 15 0
-10 -36 -59 -83 15 0
-10 -33 -60 -83 14 0
-10 -34 -60 -83 15 0
-10 -35 -60 -83 15 0
-10 -36 -60 -83 15 0
-10 -33 -57 -84 14 0
-10 -34 -57 -84 14 0
-10 -35 -57 -84 14 0
-10 -36 -57 -84 14 0
-10 -33 -58 -84 14 0
-10 -34 -58 -84 15 0
-10 -35 -58 -84 15 0
-10 -36 -58 -84 15 0
-10 -33 -59 -84 14 0
-10 -34 -59 -84 15 0
-10 -35 -59 -84 15 0
-10 -36 -59 -84 15 0
-10 -33 -60 -84 14 0
-10 -34 -60 -84 15 0
-10 -35 -60 -84 15 0
-10 -36 -60 -84 15 0
-11 -33 -57 -81 14 0
-11 -34 -57 -81 14 0
-11 -35 -57 -81 14 0
-11 -36 -57 -81 14 0
-11 -33 -58 -81 14 0
-11 -34 -58 -81 14 0
-11 -35 -58 -81 14 0
-11 -36 -58 -81 14 0
-11 -33 -59 -81 14 0
-11 -34 -59 -81 14 0
-11 -35 -59 -81 14 0
-11 -36 -59 -81 14 0
-11 -33 -60 -81 14 0
-11 -34 -60 -81 14 0
-11 -35 -60 -81 14 0
-11 -36 -60 -81 14 0
-11 -33 -57 -82 14 0
-11 -34 -57 -82 14 0
-11 -35 -57 -82 14 0
-11 -36 -57 -82 14 0
-11 -33 -58 -82 14 0
-11 -34 -58 -82 15 0
-11 -35 -58 -82 15 0
-11 -36 -58 -82 15 0
-11 -33 -59 -82 14 0
-11 -34 -59 -82 15 0
-11 -35 -59 -82 15 0
-11 -36 -59 -82 15 0
-11 -33 -60 -82 14 0
-11 -34 -60 -82 15 0
-11 -35 -60 -82 15 0
-11 -36 -60 -82 15 0
-11 -33 -57 -83 14 0
-11 -34 -57 -83 14 0
-11 -35 -57 -83 14 0
-11 -36 -57 -83 14 0
-11 -33 -58 -83 14 0
-11 -34 -58 -83 15 0
-11 -35 -58 -83 15 0
-11 -36 -58 -83 15 0
-11 -33 -59 -83 14 0
-11 -34 -59 -83 15 0
-11 -35 -59 -83 16 0
-11 -36 -59 -83 16 0
-11 -33 -60 -83 14 0
-11 -34 -60 -83 15 0
-11 -35 -60 -83 16 0
-11 -36 -60 -83 16 0
-11 -33 -57 -84 14 0
-11 -34 -57 -84 14 0
-11 -35 -57 -84 14 0
-11 -36 -57 -84 14 0
-11 -33 -58 -84 14 0
-11 -34 -58 -84 15 0
-11 -35 -58 -84 15 0
-11 -36 -58 -84 15 0
-11 -33 -59 -84 14 0
-11 -34 -59 -84 15 0
-11 -35 -59 -84 16 0
-11 -36 -59 -84 16 0
-11 -33 -60 -84 14 0
-11 -34 -60 -84 15 0
-11 -35 -60 -84 16 0
-11 -36 -60 -84 16 0
-12 -33 -57 -81 14 0
-12 -34 -57 -81 14 0
-12 -35 -57 -81 14 0
-12 -36 -57 -81 14 0
-12 -33 -58 -81 14 0
-12 -34 -58 -81 14 0
-12 -35 -58 -81 14 0
-12 -36 -58 -81 14 0
-12 -33 -59 -81 14 0
-12 -34 -59 -81 14 0
-12 -35 -59 -81 14 0
-12 -36 -59 -81 14 0
-12 -33 -60 -81 14 0
-12 -34 -60 -81 14 0
-12 -35 -60 -81 14 0
-12 -36 -60 -81 14 0
-12 -33 -57 -82 14 0
-12 -34 -57 -82 14 0
-12 -35 -57 -82 14 0
-12 -36 -57 -82 14 0
-12 -33 -58 -82 14 0
-12 -34 -58 -82 15 0
-12 -35 -58 -82 15 0
-12 -36 -58 -82 15 0
-12 -33 -59 -82 14 0
-12 -34 -59 -82 15 0
-12 -35 -59 -82 15 0
-12 -36 -59 -82 15 0
-12 -33 -60 -82 14 0
-12 -34 -60 -82 15 0
-12 -35 -60 -82 15 0
-12 -36 -60 -82 15 0
-12 -33 -57 -83 14 0
-12 -34 -57 -83 14 0
-12 -35 -57 -83 14 0
-12 -36 -57 -83 14 0
-12 -33 -58 -83 14 0
-12 -34 -58 -83 15 0
-12 -35 -58 -83 15 0
-12 -36 -58 -83 15 0
-12 -33 -59 -83 14 0
-12 -34 -59 -83 15 0
-12 -35 -59 -83 16 0
-12 -36 -59 -83 16 0
-12 -33 -60 -83 14 0
-12 -34 -60 -83 15 0
-12 -35 -60 -83 16 0
-12 -36 -60 -83 16 0
-12 -33 -57 -84 14 0
-12 -34 -57 -84 14 0
-12 -35 -57 -84 14 0
-12 -36 -57 -84 14 0
-12 -33 -58 -84 14 0
-12 -34 -58 -84 15 0
-12 -35 -58 -84 15 0
-12 -36 -58 -84 15 0
-12 -33 -59 -84 14 0
-12 -34 -59 -84 15 0
-12 -35 -59 -84 16 0
-12 -36 -59 -84 16 0
-12 -33 -60 -84 14 0
-12 -34 -60 -84 15 0
-12 -35 -60 -84 16 0
-12 -36 -60 -84 13 0
-33 -9 38 0
-33 -10 38 0
-33 -11 38 0
-33 -12 38 0
-34 -9 38 0
-34 -10 39 0
-34 -11 39 0
-34 -12 39 0
-35 -9 38 0
-35 -10 39 0
-35 -11 40 0
-35 -12 40 0
-36 -9 38 0
-36 -10 39 0
-36 -11 40 0
-36 -12 37 0
-57 -9 62 0
-57 -10 62 0
-57 -11 62 0
-57 -12 62 0
-58 -9 62 0
-58 -10 63 0
-58 -11 63 0
-58 -12 63 0
-59 -9 62 0
-59 -10 63 0
-59 -11 64 0
-59 -12 64 0
-60 -9 62 0
-60 -10 63 0
-60 -11 64 0
-60 -12 61 0
-81 -9 86 0
-81 -10 86 0
-81 -11 86 0
-81 -12 86 0
-82 -9 86 0
-82 -10 87 0
-82 -11 87 0
-82 -12 87 0
-83 -9 86 0
-83 -10 87 0
-83 -11 88 0
-83 -12 88 0
-84 -9 86 0
-84 -10 87 0
-84 -11 88 0
-84 -12 85 0
-13 -37 -61 -85 18 0
-13 -38 -61 -85 18 0
-13 -39 -61 -85 18 0
-13 -40 -61 -85 18 0
-13 -37 -62 -85 18 0
-13 -38 -62 -85 18 0
-13 -39 -62 -85 18 0
-13 -40 -62 -85 18 0
-13 -37 -63 -85 18 0
-13 -38 -63 -85 18 0
-13 -39 -63 -85 18 0
-13 -40 -63 -85 18 0
-13 -37 -64 -85 18 0
-13 -38 -64 -85 18 0
-13 -39 -64 -85 18 0
-13 -40 -64 -85 18 0
-13 -37 -61 -86 18 0
-13 -38 -61 -86 18 0
-13 -39 -61 -86 18 0
-13 -40 -61 -86 18 0
-13 -37 -62 -86 18 0
-13 -38 -62 -86 18 0
-13 -39 -62 -86 18 0
-13 -40 -62 -86 18 0
-13 -37 -63 -86 18 0
-13 -38 -63 -86 18 0
-13 -39 -63 -86 18 0
-13 -40 -63 -86 18 0
-13 -37 -64 -86 18 0
-13 -38 -64 -86 18 0
-13 -39 -64 -86 18 0
-13 -40 -64 -86 18 0
-13 -37 -61 -87 18 0
-13 -38 -61 -87 18 0
-13 -39 -61 -87 18 0
-13 -40 -61 -87 18 0
-13 -37 -62 -87 18 0
-13 -38 -62 -87 18 0
-13 -39 -62 -87 18 0
-13 -40 -62 -87 18 0
-13 -37 -63 -87 18 0
-13 -38 -63 -87 18 0
-13 -39 -63 -87 18 0
-13 -40 -63 -87 18 0
-13 -37 -64 -87 18 0
-13 -38 -64 -87 18 0
-13 -39 -64 -87 18 0
-13 -40 -64 -87 18 0
-13 -37 -61 -88 18 0
-13 -38 -61 -88 18 0
-13 -39 -61 -88 18 0
-13 -40 -61 -88 18 0
-13 -37 -62 -88 18 0
-13 -38 -62 -88 18 0
-13 -39 -62 -88 18 0
-13 -40 -62 -88 18 0
-13 -37 -63 -88 18 0
-13 -38 -63 -88 18 0
-13 -39 -63 -88 18 0
-13 -40 -63 -88 18 0
-13 -37 -64 -88 18 0
-13 -38 -64 -88 18 0
-13 -39 -64 -88 18 0
-13 -40 -64 -88 18 0
-14 -37 -61 -85 18 0
-14 -38 -61 -85 18 0
-14 -39 -61 -85 18 0
-14 -40 -61 -85 18 0
-14 -37 -62 -85 18 0
-14 -38 -62 -85 18 0
-14 -39 -62 -85 18 0
-14 -40 -62 -85 18 0
-14 -37 -63 -85 18 0
-14 -38 -63 -85 18 0
-14 -39 -63 -85 18 0
-14 -40 -63 -85 18 0
-14 -37 -64 -85 18 0
-14 -38 -64 -85 18 0
-14 -39 -64 -85 18 0
-14 -40 -64 -85 18 0
-14 -37 -61 -86 18 0
-14 -38 -61 -86 18 0
-14 -39 -61 -86 18 0
-14 -40 -61 -86 18 0
-14 -37 -62 -86 18 0
-14 -38 -62 -86 19 0
-14 -39 -62 -86 19 0
-14 -40 -62 -86 19 0
-14 -37 -63 -86 18 0
-14 -38 -63 -86 19 0
-14 -39 -63 -86 19 0
-14 -40 -63 -86 19 0
-14 -37 -64 -86 18 0
-14 -38 -64 -86 19 0
-14 -39 -64 -86 19 0
-14 -40 -64 -86 19 0
-14 -37 -61 -87 18 0
-14 -38 -61 -87 18 0
-14 -39 -61 -87 18 0
-14 -40 -61 -87 18 0
-14 -37 -62 -87 18 0
-14 -38 -62 -87 19 0
-14 -39 -62 -87 19 0
-14 -40 -62 -87 19 0
-14 -37 -63 -87 18 0
-14 -38 -63 -87 19 0
-14 -39 -63 -87 19 0
-14 -40 -63 -87 19 0
-14 -37 -64 -87 18 0
-14 -38 -64 -87 19 0
-14 -39 -64 -87 19 0
-14 -40 -64 -87 19 0
-14 -37 -61 -88 18 0
-14 -38 -61 -88 18 0
-14 -39 -61 -88 18 0
-14 -40 -61 -88 18 0
-14 -37 -62 -88 18 0
-14 -38 -62 -88 19 0
-14 -39 -62 -88 19 0
-14 -40 -62 -88 19 0
-14 -37 -63 -88 18 0
-14 -38 -63 -88 19 0
-14 -39 -63 -88 19 0
-14 -40 -63 -88 19 0
-14 -37 -64 -88 18 0
-14 -38 -64 -88 19 0
-14 -39 -64 -88 19 0
-14 -40 -64 -88 19 0
-15 -37 -61 -85 18 0
-15 -38 -61 -85 18 0
-15 -39 -61 -85 18 0
-15 -40 -61 -85 18 0
-15 -37 -62 -85 18 0
-15 -38 -62 -85 18 0
-15 -39 -62 -85 18 0
-15 -40 -62 -85 18 0
-15 -37 -63 -85 18 0
-15 -38 -63 -85 18 0
-15 -39 -63 -85 18 0
-15 -40 -63 -85 18 0
-15 -37 -64 -85 18 0
-15 -38 -64 -85 18 0
-15 -39 -64 -85 18 0
-15 -40 -64 -85 18 0
-15 -37 -61 -86 18 0
-15 -38 -61 -86 18 0
-15 -39 -61 -86 18 0
-15 -40 -61 -86 18 0
-15 -37 -62 -86 18 0
-15 -38 -62 -86 19 0
-15 -39 -62 -86 19 0
-15 -40 -62 -86 19 0
-15 -37 -63 -86 18 0
-15 -38 -63 -86 19 0
-15 -39 -63 -86 19 0
-15 -40 -63 -86 19 0
-15 -37 -64 -86 18 0
-15 -38 -64 -86 19 0
-15 -39 -64 -86 19 0
-15 -40 -64 -86 19 0
-15 -37 -61 -87 18 0
-15 -38 -61 -87 18 0
-15 -39 -61 -87 18 0
-15 -40 -61 -87 18 0
-15 -37 -62 -87 18 0
-15 -38 -62 -87 19 0
-15 -39 -62 -87 19 0
-15 -40 -62 -87 19 0
-15 -37 -63 -87 18 0
-15 -38 -63 -87 19 0
-15 -39 -63 -87 20 0
-15 -40 -63 -87 20 0
-15 -37 -64 -87 18 0
-15 -38 -64 -87 19 0
-15 -39 -64 -87 20 0
-15 -40 -64 -87 20 0
-15 -37 -61 -88 18 0
-15 -38 -61 -88 18 0
-15 -39 -61 -88 18 0
-15 -40 -61 -88 18 0
-15 -37 -62 -88 18 0
-15 -38 -62 -88 19 0
-15 -39 -62 -88 19 0
-15 -40 -62 -88 19 0
-15 -37 -63 -88 18 0
-15 -38 -63 -88 19 0
-15 -39 -63 -88 20 0
-15 -40 -63 -88 20 0
-15 -37 -64 -88 18 0
-15 -38 -64 -88 19 0
-15 -39 -64 -88 20 0
-15 -40 -64 -88 20 0
-16 -37 -61 -85 18 0
-16 -38 -61 -85 18 0
-16 -39 -61 -85 18 0
-16 -40 -61 -85 18 0
-16 -37 -62 -85 18 0
-16 -38 -62 -85 18 0
-16 -39 -62 -85 18 0
-16 -40 -62 -85 18 0
-16 -37 -63 -85 18 0
-16 -38 -63 -85 18 0
-16 -39 -63 -85 18 0
-16 -40 -63 -85 18 0
-16 -37 -64 -85 18 0
-16 -38 -64 -85 18 0
-16 -39 -64 -85 18 0
-16 -40 -64 -85 18 0
-16 -37 -61 -86 18 0
-16 -38 -61 -86 18 0
-16 -39 -61 -86 18 0
-16 -40 -61 -86 18 0
-16 -37 -62 -86 18 0
-16 -38 -62 -86 19 0
-16 -39 -62 -86 19 0
-16 -40 -62 -86 19 0
-16 -37 -63 -86 18 0
-16 -38 -63 -86 19 0
-16 -39 -63 -86 19 0
-16 -40 -63 -86 19 0
-16 -37 -64 -86 18 0
-16 -38 -64 -86 19 0
-16 -39 -64 -86 19 0
-16 -40 -64 -86 19 0
-16 -37 -61 -87 18 0
-16 -38 -61 -87 18 0
-16 -39 -61 -87 18 0
-16 -40 -61 -87 18 0
-16 -37 -62 -87 18 0
-16 -38 -62 -87 19 0
-16 -39 -62 -87 19 0
-16 -40 -62 -87 19 0
-16 -37 -63 -87 18 0
-16 -38 -63 -87 19 0
-16 -39 -63 -87 20 0
-16 -40 -63 -87 20 0
-16 -37 -64 -87 18 0
-16 -38 -64 -87 19 0
-16 -39 -64 -87 20 0
-16 -40 -64 -87 20 0
-16 -37 -61 -88 18 0
-16 -38 -61 -88 18 0
-16 -39 -61 -88 18 0
-16 -40 -61 -88 18 0
-16 -37 -62 -88 18 0
-16 -38 -62 -88 19 0
-16 -39 -62 -88 19 0
-16 -40 -62 -88 19 0
-16 -37 -63 -88 18 0
-16 -38 -63 -88 19 0
-16 -39 -63 -88 20 0
-16 -40 -63 -88 20 0
-16 -37 -64 -88 18 0
-16 -38 -64 -88 19 0
-16 -39 -64 -88 20 0
-16 -40 -64 -88 17 0
-37 -13 42 0
-37 -14 42 0
-37 -15 42 0
-37 -16 42 0
-38 -13 42 0
-38 -14 43 0
-38 -15 43 0
-38 -16 43 0
-39 -13 42 0
-39 -14 43 0
-39 -15 44 0
-39 -16 44 0
-40 -13 42 0
-40 -14 43 0
-40 -15 44 0
-40 -16 41 0
-61 -13 66 0
-61 -14 66 0
-61 -15 66 0
-61 -16 66 0
-62 -13 66 0
-62 -14 67 0
-62 -15 67 0
-62 -16 67 0
-63 -13 66 0
-63 -14 67 0
-63 -15 68 0
-63 -16 68 0
-64 -13 66 0
-64 -14 67 0
-64 -15 68 0
-64 -16 65 0
-85 -13 90 0
-85 -14 90 0
-85 -15 90 0
-85 -16 90 0
-86 -13 90 0
-86 -14 91 0
-86 -15 91 0
-86 -16 91 0
-87 -13 90 0
-87 -14 91 0
-87 -15 92 0
-87 -16 92 0
-88 -13 90 0
-88 -14 91 0
-88 -15 92 0
-88 -16 89 0
-17 -41 -65 -89 22 0
-17 -42 -65 -89 22 0
-17 -43 -65 -89 22 0
-17 -44 -65 -89 22 0
-17 -41 -66 -89 22 0
-17 -42 -66 -89 22 0
-17 -43 -66 -89 22 0
-17 -44 -66 -89 22 0
-17 -41 -67 -89 22 0
-17 -42 -67 -89 22 0
-17 -43 -67 -89 22 0
-17 -44 -67 -89 22 0
-17 -41 -68 -89 22 0
-17 -42 -68 -89 22 0
-17 -43 -68 -89 22 0
-17 -44 -68 -89 22 0
-17 -41 -65 -90 22 0
-17 -42 -65 -90 22 0
-17 -43 -65 -90 22 0
-17 -44 -65 -90 22 0
-17 -41 -66 -90 22 0
-17 -42 -66 -90 22 0
-17 -43 -66 -90 22 0
-17 -44 -66 -90 22 0
-17 -41 -67 -90 22 0
-17 -42 -67 -90 22 0
-17 -43 -67 -90 22 0
-17 -44 -67 -90 22 0
-17 -41 -68 -90 22 0
-17 -42 -68 -90 22 0
-17 -43 -68 -90 22 0
-17 -44 -68 -90 22 0
-17 -41 -65 -91 22 0
-17 -42 -65 -91 22 0
-17 -43 -65 -91 22 0
-17 -44 -65 -91 22 0
-17 -41 -66 -91 22 0
-17 -42 -66 -91 22 0
-17 -43 -66 -91 22 0
-17 -44 -66 -91 22 0
-17 -41 -67 -91 22 0
-17 -42 -67 -91 22 0
-17 -43 -67 -91 22 0
-17 -44 -67 -91 22 0
-17 -41 -68 -91 22 0
-17 -42 -68 -91 22 0
-17 -43 -68 -91 22 0
-17 -44 -68 -91 22 0
-17 -41 -65 -92 22 0
-17 -42 -65 -92 22 0
-17 -43 -65 -92 22 0
-17 -44 -65 -92 22 0
-17 -41 -66 -92 22 0
-17 -42 -66 -92 22 0
-17 -43 -66 -92 22 0
-17 -44 -66 -92 22 0
-17 -41 -67 -92 22 0
-17 -42 -67 -92 22 0
-17 -43 -67 -92 22 0
-17 -44 -67 -92 22 0
-17 -41 -68 -92 22 0
-17 -42 -68 -92 22 0
-17 -43 -68 -92 22 0
-17 -44 -68 -92 22 0
-18 -41 -65 -89 22 0
-18 -42 -65 -89 22 0
-18 -43 -65 -89 22 0
-18 -44 -65 -89 22 0
-18 -41 -66 -89 22 0
-18 -42 -66 -89 22 0
-18 -43 -66 -89 22 0
-18 -44 -66 -89 22 0
-18 -41 -67 -89 22 0
-18 -42 -67 -89 22 0
-18 -43 -67 -89 22 0
-18 -44 -67 -89 22 0
-18 -41 -68 -89 22 0
-18 -42 -68 -89 22 0
-18 -43 -68 -89 22 0
-18 -44 -68 -89 22 0
-18 -41 -65 -90 22 0
-18 -42 -65 -90 22 0
-18 -43 -65 -90 22 0
-18 -44 -65 -90 22 0
-18 -41 -66 -90 22 0
-18 -42 -66 -90 23 0
-18 -43 -66 -90 23 0
-18 -44 -66 -90 23 0
-18 -41 -67 -90 22 0
-18 -42 -67 -90 23 0
-18 -43 -67 -90 23 0
-18 -44 -67 -90 23 0
-18 -41 -68 -90 22 0
-18 -42 -68 -90 23 0
-18 -43 -68 -90 23 0
-18 -44 -68 -90 23 0
-18 -41 -65 -91 22 0
-18 -42 -65 -91 22 0
-18 -43 -65 -91 22 0
-18 -44 -65 -91 22 0
-18 -41 -66 -91 22 0
-18 -42 -66 -91 23 0
-18 -43 -66 -91 23 0
-18 -44 -66 -91 23 0
-18 -41 -67 -91 22 0
-18 -42 -67 -91 23 0
-18 -43 -67 -91 23 0
-18 -44 -67 -91 23 0
-18 -41 -68 -91 22 0
-18 -42 -68 -91 23 0
-18 -43 -68 -91 23 0
-18 -44 -68 -91 23 0
-18 -41 -65 -92 22 0
-18 -42 -65 -92 22 0
-18 -43 -65 -92 22 0
-18 -44 -65 -92 22 0
-18 -41 -66 -92 22 0
-18 -42 -66 -92 23 0
-18 -43 -66 -92 23 0
-18 -44 -66 -92 23 0
-18 -41 -67 -92 22 0
-18 -42 -67 -92 23 0
-18 -43 -67 -92 23 0
-18 -44 -67 -92 23 0
-18 -41 -68 -92 22 0
-18 -42 -68 -92 23 0
-18 -43 -68 -92 23 0
-18 -44 -68 -92 23 0
-19 -41 -65 -89 22 0
-19 -42 -65 -89 22 0
-19 -43 -65 -89 22 0
-19 -44 -65 -89 22 0
-19 -41 -66 -89 22 0
-19 -42 -66 -89 22 0
-19 -43 -66 -89 22 0
-19 -44 -66 -89 22 0
-19 -41 -67 -89 22 0
-19 -42 -67 -89 22 0
-19 -43 -67 -89 22 0
-19 -44 -67 -89 22 0
-19 -41 -68 -89 22 0
-19 -42 -68 -89 22 0
-19 -43 -68 -89 22 0
-19 -44 -68 -89 22 0
-19 -41 -65 -90 22 0
-19 -42 -65 -90 22 0
-19 -43 -65 -90 22 0
-19 -44 -65 -90 22 0
-19 -41 -66 -90 22 0
-19 -42 -66 -90 23 0
-19 -43 -66 -90 23 0
-19 -44 -66 -90 23 0
-19 -41 -67 -90 22 0
-19 -42 -67 -90 23 0
-19 -43 -67 -90 23 0
-19 -44 -67 -90 23 0
-19 -41 -68 -90 22 0
-19 -42 -68 -90 23 0
-19 -43 -68 -90 23 0
-19 -44 -68 -90 23 0
-19 -41 -65 -91 22 0
-19 -42 -65 -91 22 0
-19 -43 -65 -91 22 0
-19 -44 -65 -91 22 0
-19 -41 -66 -91 22 0
-19 -42 -66 -91 23 0
-19 -43 -66 -91 23 0
-19 -44 -66 -91 23 0
-19 -41 -67 -91 22 0
-19 -42 -67 -91 23 0
-19 -43 -67 -91 24 0
-19 -44 -67 -91 24 0
-19 -41 -68 -91 22 0
-19 -42 -68 -91 23 0
-19 -43 -68 -91 24 0
-19 -44 -68 -91 24 0
-19 -41 -65 -92 22 0
-19 -42 -65 -92 22 0
-19 -43 -65 -92 22 0
-19 -44 -65 -92 22 0
-19 -41 -66 -92 22 0
-19 -42 -66 -92 23 0
-19 -43 -66 -92 23 0
-19 -44 -66 -92 23 0
-19 -41 -67 -92 22 0
-19 -42 -67 -92 23 0
-19 -43 -67 -92 24 0
-19 -44 -67 -92 24 0
-19 -41 -68 -92 22 0
-19 -42 -68 -92 23 0
-19 -43 -68 -92 24 0
-19 -44 -68 -92 24 0
-20 -41 -65 -89 22 0
-20 -42 -65 -89 22 0
-20 -43 -65 -89 22 0
-20 -44 -65 -89 22 0
-20 -41 -66 -89 22 0
-20 -42 -66 -89 22 0
-20 -43 -66 -89 22 0
-20 -44 -66 -89 22 0
-20 -41 -67 -89 22 0
-20 -42 -67 -89 22 0
-20 -43 -67 -89 22 0
-20 -44 -67 -89 22 0
-20 -41 -68 -89 22 0
-20 -42 -68 -89 22 0
-20 -43 -68 -89 22 0
-20 -44 -68 -89 22 0
-20 -41 -65 -90 22 0
-20 -42 -65 -90 22 0
-20 -43 -65 -90 22 0
-20 -44 -65 -90 22 0
-20 -41 -66 -90 22 0
-20 -42 -66 -90 23 0
-20 -43 -66 -90 23 0
-20 -44 -66 -90 23 0
-20 -41 -67 -90 22 0
-20 -42 -67 -90 23 0
-20 -43 -67 -90 23 0
-20 -44 -67 -90 23 0
-20 -41 -68 -90 22 0
-20 -42 -68 -90 23 0
-20 -43 -68 -90 23 0
-20 -44 -68 -90 23 0
-20 -41 -65 -91 22 0
-20 -42 -65 -91 22 0
-20 -43 -65 -91 22 0
-20 -44 -65 -91 22 0
-20 -41 -66 -91 22 0
-20 -42 -66 -91 23 0
-20 -43 -66 -91 23 0
-20 -44 -66 -91 23 0
-20 -41 -67 -91 22 0
-20 -42 -67 -91 23 0
-20 -43 -67 -91 24 0
-20 -44 -67 -91 24 0
-20 -41 -68 -91 22 0
-20 -42 -68 -91 23 0
-20 -43 -68 -91 24 0
-20 -44 -68 -91 24 0
-20 -41 -65 -92 22 0
-20 -42 -65 -92 22 0
-20 -43 -65 -92 22 0
-20 -44 -65 -92 22 0
-20 -41 -66 -92 22 0
-20 -42 -66 -92 23 0
-20 -43 -66 -92 23 0
-20 -44 -66 -92 23 0
-20 -41 -67 -92 22 0
-20 -42 -67 -92 23 0
-20 -43 -67 -92 24 0
-20 -44 -67 -92 24 0
-20 -41 -68 -92 22 0
-20 -42 -68 -92 23 0
-20 -43 -68 -92 24 0
-20 -44 -68 -92 21 0
-41 -17 46 0
-41 -18 46 0
-41 -19 46 0
-41 -20 46 0
-42 -17 46 0
-42 -18 47 0
-42 -19 47 0
-42 -20 47 0
-43 -17 46 0
-43 -18 47 0
-43 -19 48 0
-43 -20 48 0
-44 -17 46 0
-44 -18 47 0
-44 -19 48 0
-44 -20 45 0
-65 -17 70 0
-65 -18 70 0
-65 -19 70 0
-65 -20 70 0
-66 -17 70 0
-66 -18 71 0
-66 -19 71 0
-66 -20 71 0
-67 -17 70 0
-67 -18 71 0
-67 -19 72 0
-67 -20 72 0
-68 -17 70 0
-68 -18 71 0
-68 -19 72 0
-68 -20 69 0
-89 -17 94 0
-89 -18 94 0
-89 -19 94 0
-89 -20 94 0
-90 -17 94 0
-90 -18 95 0
-90 -19 95 0
-90 -20 95 0
-91 -17 94 0
-91 -18 95 0
-91 -19 96 0
-91 -20 96 0
-92 -17 94 0
-92 -18 95 0
-92 -19 96 0
-92 -20 93 0
-21 -45 -69 -93 0
-22 -46 -70 -94 0
-23 -47 -71 -95 0
-24 -48 -72 -96 0
-1 -25 -49 -73 0
-2 -26 -50 -74 0
-3 -27 -51 -75 0
-4 -28 -52 -76 0
-5 -29 -53 -77 0
-6 -30 -54 -78 0
-7 -31 -55 -79 0
-8 -32 -56 -80 0
-25 -50 0
-25 -51 0
-25 -52 0
-26 -51 0
-26 -52 0
-27 -52 0
-25 -74 0
-25 -75 0
-25 -76 0
-26 -75 0
-26 -76 0
-27 -76 0
-49 -74 0
-49 -75 0
-49 -76 0
-50 -75 0
-50 -76 0
-51 -76 0
